c random assignment satisfied 3/430 clauses
o 427
c flipped 0/100 variables (k=0)
c solution improved by 61 clauses
o 366
c flipped 0/100 variables (k=0)
c solution improved by 77 clauses
o 289
c flipped 0/100 variables (k=0)
c solution improved by 70 clauses
o 219
c flipped 0/100 variables (k=0)
c solution improved by 1 clause
o 218
c flipped 0/100 variables (k=0)
c solution improved by 8 clauses
o 210
c flipped 0/100 variables (k=0)
c solution improved by 2 clauses
o 208
c flipped 0/100 variables (k=0)
c solution improved by 18 clauses
o 190
c flipped 0/100 variables (k=0)
c solution improved by 1 clause
o 189
c flipped 0/100 variables (k=0)
c solution improved by 1 clause
o 188
c flipped 0/100 variables (k=0)
c solution improved by 16 clauses
o 172
c flipped 0/100 variables (k=0)
c solution improved by 15 clauses
o 157
c flipped 0/100 variables (k=0)
c solution improved by 1 clause
o 156
c flipped 0/100 variables (k=0)
c solution improved by 1 clause
o 155
c flipped 0/100 variables (k=0)
c solution improved by 44 clauses
o 111
c flipped 0/100 variables (k=0)
c solution improved by 16 clauses
o 95
c flipped 0/100 variables (k=0)
c solution improved by 16 clauses
o 79
c flipped 0/100 variables (k=0)
c solution improved by 16 clauses
o 63
c flipped 0/100 variables (k=0)
c solution improved by 2 clauses
o 61
c flipped 0/100 variables (k=0)
c solution improved by 1 clause
o 60
c flipped 0/100 variables (k=0)
c solution improved by 1 clause
o 59
c flipped 0/100 variables (k=0)
c solution improved by 1 clause
o 58
c flipped 0/100 variables (k=0)
c solution improved by 1 clause
o 57
c flipped 0/100 variables (k=0)
c solution improved by 1 clause
o 56
c flipped 0/100 variables (k=0)
c solution improved by 1 clause
o 55
c flipped 0/100 variables (k=0)
c solution improved by 1 clause
o 54
c flipped 0/100 variables (k=0)
c solution improved by 1 clause
o 53
c flipped 0/100 variables (k=0)
c solution improved by 1 clause
o 52
c flipped 0/100 variables (k=0)
c solution improved by 1 clause
o 51
c flipped 0/100 variables (k=0)
c solution improved by 1 clause
o 50
c flipped 0/100 variables (k=0)
c solution improved by 3 clauses
o 47
c flipped 0/100 variables (k=0)
c solution improved by 1 clause
o 46
c flipped 0/100 variables (k=0)
c solution improved by 2 clauses
o 44
v 1000111101000001100101100100111100011111100101101000010110100001001001011010111100111101010110000011
c stuck at 386/430 clauses with k=0
s UNKNOWN
